(set-logic QF_UF)
(declare-fun A0 () Bool)
(declare-fun A1 () Bool)
(declare-fun A2 () Bool)
(declare-fun A3 () Bool)
(declare-fun A4 () Bool)
(declare-fun A5 () Bool)
(declare-fun A6 () Bool)
(declare-fun A7 () Bool)
(declare-fun A8 () Bool)
(declare-fun A9 () Bool)
(declare-fun A10 () Bool)
(declare-fun A11 () Bool)
(declare-fun A12 () Bool)
(declare-fun A13 () Bool)
(declare-fun A14 () Bool)
(declare-fun A15 () Bool)
(declare-fun A16 () Bool)
(declare-fun A17 () Bool)
(declare-fun A18 () Bool)
(declare-fun A19 () Bool)
(declare-fun A20 () Bool)
(declare-fun A21 () Bool)
(declare-fun A22 () Bool)
(declare-fun A23 () Bool)
(declare-fun A24 () Bool)
(assert (let ((.def_0 (not A16))) (let ((.def_1 (not A19))) (let ((.def_2 (and .def_1 .def_0))) (let ((.def_3 (not A24))) (let ((.def_4 (not A15))) (let ((.def_5 (or .def_4 .def_3))) (let ((.def_6 (and .def_5 .def_2))) (let ((.def_7 (not .def_6))) (let ((.def_8 (not A0))) (let ((.def_9 (or .def_8 .def_1))) (let ((.def_10 (or A12 A7))) (let ((.def_11 (not .def_10))) (let ((.def_12 (or .def_11 .def_9))) (let ((.def_13 (not .def_12))) (let ((.def_14 (or .def_13 .def_7))) (let ((.def_15 (not .def_14))) (let ((.def_16 (not A9))) (let ((.def_17 (or A9 .def_16))) (let ((.def_18 (not A1))) (let ((.def_19 (not A12))) (let ((.def_20 (and .def_19 .def_18))) (let ((.def_21 (not .def_20))) (let ((.def_22 (and .def_21 .def_17))) (let ((.def_23 (and A12 A4))) (let ((.def_24 (not .def_23))) (let ((.def_25 (not A10))) (let ((.def_26 (= .def_25 A3))) (let ((.def_27 (and .def_26 .def_24))) (let ((.def_28 (or .def_27 .def_22))) (let ((.def_29 (not .def_28))) (let ((.def_30 (or .def_29 .def_15))) (let ((.def_31 (not .def_30))) (let ((.def_32 (or A22 A5))) (let ((.def_33 (not .def_32))) (let ((.def_34 (or A16 A5))) (let ((.def_35 (not .def_34))) (let ((.def_36 (and .def_35 .def_33))) (let ((.def_37 (not .def_36))) (let ((.def_38 (not A8))) (let ((.def_39 (and .def_38 .def_1))) (let ((.def_40 (not .def_39))) (let ((.def_41 (not A18))) (let ((.def_42 (and .def_41 A11))) (let ((.def_43 (not .def_42))) (let ((.def_44 (= .def_43 .def_40))) (let ((.def_45 (not .def_44))) (let ((.def_46 (= .def_45 .def_37))) (let ((.def_47 (not .def_46))) (let ((.def_48 (and A0 A23))) (let ((.def_49 (not .def_48))) (let ((.def_50 (not A4))) (let ((.def_51 (or A7 .def_50))) (let ((.def_52 (not .def_51))) (let ((.def_53 (and .def_52 .def_49))) (let ((.def_54 (not .def_53))) (let ((.def_55 (not A22))) (let ((.def_56 (and .def_50 .def_55))) (let ((.def_57 (not .def_56))) (let ((.def_58 (and .def_55 A21))) (let ((.def_59 (or .def_58 .def_57))) (let ((.def_60 (not .def_59))) (let ((.def_61 (= .def_60 .def_54))) (let ((.def_62 (not .def_61))) (let ((.def_63 (and .def_62 .def_47))) (let ((.def_64 (and .def_63 .def_31))) (let ((.def_65 (not .def_64))) (let ((.def_66 (not A11))) (let ((.def_67 (= .def_66 A19))) (let ((.def_68 (not .def_67))) (let ((.def_69 (or A18 A19))) (let ((.def_70 (and .def_69 .def_68))) (let ((.def_71 (or A3 .def_38))) (let ((.def_72 (and .def_42 .def_71))) (let ((.def_73 (not .def_72))) (let ((.def_74 (or .def_73 .def_70))) (let ((.def_75 (and .def_66 .def_8))) (let ((.def_76 (not A3))) (let ((.def_77 (not A13))) (let ((.def_78 (or .def_77 .def_76))) (let ((.def_79 (and .def_78 .def_75))) (let ((.def_80 (not A21))) (let ((.def_81 (or .def_80 .def_77))) (let ((.def_82 (or A24 A18))) (let ((.def_83 (not .def_82))) (let ((.def_84 (or .def_83 .def_81))) (let ((.def_85 (or .def_84 .def_79))) (let ((.def_86 (not .def_85))) (let ((.def_87 (and .def_86 .def_74))) (let ((.def_88 (not A14))) (let ((.def_89 (and .def_16 .def_88))) (let ((.def_90 (not .def_89))) (let ((.def_91 (and A15 .def_41))) (let ((.def_92 (not .def_91))) (let ((.def_93 (and .def_92 .def_90))) (let ((.def_94 (and .def_77 .def_80))) (let ((.def_95 (not .def_94))) (let ((.def_96 (= .def_0 .def_4))) (let ((.def_97 (or .def_96 .def_95))) (let ((.def_98 (not .def_97))) (let ((.def_99 (or .def_98 .def_93))) (let ((.def_100 (not A5))) (let ((.def_101 (and .def_100 A12))) (let ((.def_102 (or A8 A13))) (let ((.def_103 (or .def_102 .def_101))) (let ((.def_104 (not A6))) (let ((.def_105 (and .def_104 A7))) (let ((.def_106 (and .def_66 A1))) (let ((.def_107 (not .def_106))) (let ((.def_108 (or .def_107 .def_105))) (let ((.def_109 (not .def_108))) (let ((.def_110 (and .def_109 .def_103))) (let ((.def_111 (or .def_110 .def_99))) (let ((.def_112 (and .def_111 .def_87))) (let ((.def_113 (not .def_112))) (let ((.def_114 (and .def_113 .def_65))) (let ((.def_115 (not .def_114))) (let ((.def_116 (and .def_16 A11))) (let ((.def_117 (and A21 .def_66))) (let ((.def_118 (or .def_117 .def_116))) (let ((.def_119 (or .def_66 A7))) (let ((.def_120 (not A20))) (let ((.def_121 (or .def_120 .def_38))) (let ((.def_122 (not .def_121))) (let ((.def_123 (or .def_122 .def_119))) (let ((.def_124 (and .def_123 .def_118))) (let ((.def_125 (not .def_124))) (let ((.def_126 (= .def_18 A19))) (let ((.def_127 (not .def_126))) (let ((.def_128 (and A4 A13))) (let ((.def_129 (or .def_128 .def_127))) (let ((.def_130 (= A23 A18))) (let ((.def_131 (and .def_76 A21))) (let ((.def_132 (not .def_131))) (let ((.def_133 (= .def_132 .def_130))) (let ((.def_134 (= .def_133 .def_129))) (let ((.def_135 (not .def_134))) (let ((.def_136 (or .def_135 .def_125))) (let ((.def_137 (not .def_136))) (let ((.def_138 (and .def_1 .def_88))) (let ((.def_139 (not .def_138))) (let ((.def_140 (not A17))) (let ((.def_141 (or .def_140 A17))) (let ((.def_142 (not .def_141))) (let ((.def_143 (and .def_142 .def_139))) (let ((.def_144 (and A4 A20))) (let ((.def_145 (not .def_144))) (let ((.def_146 (= A1 .def_8))) (let ((.def_147 (not .def_146))) (let ((.def_148 (and .def_147 .def_145))) (let ((.def_149 (and .def_148 .def_143))) (let ((.def_150 (not .def_149))) (let ((.def_151 (and A16 A9))) (let ((.def_152 (not .def_151))) (let ((.def_153 (or A14 .def_8))) (let ((.def_154 (= .def_153 .def_152))) (let ((.def_155 (and A16 A10))) (let ((.def_156 (and A8 .def_120))) (let ((.def_157 (not .def_156))) (let ((.def_158 (or .def_157 .def_155))) (let ((.def_159 (not .def_158))) (let ((.def_160 (and .def_159 .def_154))) (let ((.def_161 (or .def_160 .def_150))) (let ((.def_162 (and .def_161 .def_137))) (let ((.def_163 (or A4 A3))) (let ((.def_164 (not .def_163))) (let ((.def_165 (and A5 A14))) (let ((.def_166 (or .def_165 .def_164))) (let ((.def_167 (not .def_166))) (let ((.def_168 (not A2))) (let ((.def_169 (= .def_8 .def_168))) (let ((.def_170 (not .def_169))) (let ((.def_171 (and A18 A3))) (let ((.def_172 (not .def_171))) (let ((.def_173 (and .def_172 .def_170))) (let ((.def_174 (= .def_173 .def_167))) (let ((.def_175 (= A10 .def_25))) (let ((.def_176 (not .def_175))) (let ((.def_177 (or .def_120 A11))) (let ((.def_178 (or .def_177 .def_176))) (let ((.def_179 (not .def_178))) (let ((.def_180 (or A11 A8))) (let ((.def_181 (not .def_180))) (let ((.def_182 (or A6 .def_77))) (let ((.def_183 (and .def_182 .def_181))) (let ((.def_184 (not .def_183))) (let ((.def_185 (and .def_184 .def_179))) (let ((.def_186 (or .def_185 .def_174))) (let ((.def_187 (and A3 .def_16))) (let ((.def_188 (= A21 .def_4))) (let ((.def_189 (and .def_188 .def_187))) (let ((.def_190 (not .def_189))) (let ((.def_191 (and A17 A23))) (let ((.def_192 (or A11 .def_18))) (let ((.def_193 (= .def_192 .def_191))) (let ((.def_194 (not .def_193))) (let ((.def_195 (and .def_194 .def_190))) (let ((.def_196 (or .def_66 A12))) (let ((.def_197 (not .def_196))) (let ((.def_198 (= .def_41 .def_88))) (let ((.def_199 (= .def_198 .def_197))) (let ((.def_200 (not .def_199))) (let ((.def_201 (or .def_38 .def_1))) (let ((.def_202 (not .def_201))) (let ((.def_203 (or A7 .def_18))) (let ((.def_204 (or .def_203 .def_202))) (let ((.def_205 (not .def_204))) (let ((.def_206 (or .def_205 .def_200))) (let ((.def_207 (not .def_206))) (let ((.def_208 (and .def_207 .def_195))) (let ((.def_209 (or .def_208 .def_186))) (let ((.def_210 (not .def_209))) (let ((.def_211 (and .def_210 .def_162))) (let ((.def_212 (= .def_211 .def_115))) (let ((.def_213 (and A6 .def_25))) (let ((.def_214 (or .def_76 A10))) (let ((.def_215 (and .def_214 .def_213))) (let ((.def_216 (and .def_38 .def_50))) (let ((.def_217 (or .def_8 A12))) (let ((.def_218 (or .def_217 .def_216))) (let ((.def_219 (not .def_218))) (let ((.def_220 (and .def_219 .def_215))) (let ((.def_221 (or .def_0 .def_1))) (let ((.def_222 (or A3 .def_100))) (let ((.def_223 (= .def_222 .def_221))) (let ((.def_224 (and A22 A16))) (let ((.def_225 (not .def_224))) (let ((.def_226 (and .def_3 A13))) (let ((.def_227 (or .def_226 .def_225))) (let ((.def_228 (not .def_227))) (let ((.def_229 (or .def_228 .def_223))) (let ((.def_230 (not .def_229))) (let ((.def_231 (or .def_230 .def_220))) (let ((.def_232 (not .def_231))) (let ((.def_233 (= A18 A1))) (let ((.def_234 (not .def_233))) (let ((.def_235 (and .def_16 A1))) (let ((.def_236 (= .def_235 .def_234))) (let ((.def_237 (not .def_236))) (let ((.def_238 (or .def_120 A19))) (let ((.def_239 (not .def_238))) (let ((.def_240 (and A6 .def_50))) (let ((.def_241 (not .def_240))) (let ((.def_242 (or .def_241 .def_239))) (let ((.def_243 (not .def_242))) (let ((.def_244 (and .def_243 .def_237))) (let ((.def_245 (not .def_244))) (let ((.def_246 (and A12 .def_76))) (let ((.def_247 (not A7))) (let ((.def_248 (or A13 .def_247))) (let ((.def_249 (not .def_248))) (let ((.def_250 (= .def_249 .def_246))) (let ((.def_251 (not .def_250))) (let ((.def_252 (and .def_8 A4))) (let ((.def_253 (not .def_252))) (let ((.def_254 (and A13 A1))) (let ((.def_255 (not .def_254))) (let ((.def_256 (or .def_255 .def_253))) (let ((.def_257 (and .def_256 .def_251))) (let ((.def_258 (not .def_257))) (let ((.def_259 (or .def_258 .def_245))) (let ((.def_260 (or .def_259 .def_232))) (let ((.def_261 (not .def_260))) (let ((.def_262 (and A2 A6))) (let ((.def_263 (= .def_66 A22))) (let ((.def_264 (or .def_263 .def_262))) (let ((.def_265 (not .def_264))) (let ((.def_266 (or .def_77 .def_19))) (let ((.def_267 (or .def_171 .def_266))) (let ((.def_268 (or .def_267 .def_265))) (let ((.def_269 (not .def_268))) (let ((.def_270 (or A2 .def_80))) (let ((.def_271 (not .def_270))) (let ((.def_272 (or .def_168 .def_120))) (let ((.def_273 (not .def_272))) (let ((.def_274 (or .def_273 .def_271))) (let ((.def_275 (not .def_274))) (let ((.def_276 (and A23 A3))) (let ((.def_277 (or A24 A17))) (let ((.def_278 (or .def_277 .def_276))) (let ((.def_279 (= .def_278 .def_275))) (let ((.def_280 (or .def_279 .def_269))) (let ((.def_281 (or A16 A1))) (let ((.def_282 (not .def_281))) (let ((.def_283 (or A1 A7))) (let ((.def_284 (or .def_283 .def_282))) (let ((.def_285 (not .def_284))) (let ((.def_286 (and A17 .def_100))) (let ((.def_287 (not .def_286))) (let ((.def_288 (and .def_19 A9))) (let ((.def_289 (or .def_288 .def_287))) (let ((.def_290 (and .def_289 .def_285))) (let ((.def_291 (and A19 A19))) (let ((.def_292 (not .def_291))) (let ((.def_293 (or A4 A12))) (let ((.def_294 (not .def_293))) (let ((.def_295 (or .def_294 .def_292))) (let ((.def_296 (or .def_66 A4))) (let ((.def_297 (not .def_296))) (let ((.def_298 (and .def_38 A8))) (let ((.def_299 (not .def_298))) (let ((.def_300 (= .def_299 .def_297))) (let ((.def_301 (and .def_300 .def_295))) (let ((.def_302 (not .def_301))) (let ((.def_303 (or .def_302 .def_290))) (let ((.def_304 (not .def_303))) (let ((.def_305 (and .def_304 .def_280))) (let ((.def_306 (or .def_305 .def_261))) (let ((.def_307 (not .def_306))) (let ((.def_308 (and .def_19 A3))) (let ((.def_309 (not .def_308))) (let ((.def_310 (or A19 A13))) (let ((.def_311 (and .def_310 .def_309))) (let ((.def_312 (not .def_311))) (let ((.def_313 (and A16 A7))) (let ((.def_314 (not .def_313))) (let ((.def_315 (or .def_1 A7))) (let ((.def_316 (and .def_315 .def_314))) (let ((.def_317 (or .def_316 .def_312))) (let ((.def_318 (not .def_317))) (let ((.def_319 (and A10 A8))) (let ((.def_320 (not .def_319))) (let ((.def_321 (or A1 A10))) (let ((.def_322 (and .def_321 .def_320))) (let ((.def_323 (= A14 .def_168))) (let ((.def_324 (not .def_323))) (let ((.def_325 (and A9 .def_19))) (let ((.def_326 (or .def_325 .def_324))) (let ((.def_327 (not .def_326))) (let ((.def_328 (or .def_327 .def_322))) (let ((.def_329 (and .def_328 .def_318))) (let ((.def_330 (and A2 A15))) (let ((.def_331 (not .def_330))) (let ((.def_332 (and .def_104 A13))) (let ((.def_333 (not .def_332))) (let ((.def_334 (and .def_333 .def_331))) (let ((.def_335 (or A10 .def_8))) (let ((.def_336 (not .def_335))) (let ((.def_337 (and A16 .def_140))) (let ((.def_338 (not .def_337))) (let ((.def_339 (and .def_338 .def_336))) (let ((.def_340 (not .def_339))) (let ((.def_341 (or .def_340 .def_334))) (let ((.def_342 (or A15 A24))) (let ((.def_343 (= .def_66 A3))) (let ((.def_344 (not .def_343))) (let ((.def_345 (and .def_344 .def_342))) (let ((.def_346 (not .def_345))) (let ((.def_347 (or A16 .def_3))) (let ((.def_348 (= A9 .def_140))) (let ((.def_349 (not .def_348))) (let ((.def_350 (and .def_349 .def_347))) (let ((.def_351 (not .def_350))) (let ((.def_352 (and .def_351 .def_346))) (let ((.def_353 (not .def_352))) (let ((.def_354 (and .def_353 .def_341))) (let ((.def_355 (or .def_354 .def_329))) (let ((.def_356 (not A23))) (let ((.def_357 (or A11 .def_356))) (let ((.def_358 (not .def_357))) (let ((.def_359 (and .def_19 .def_80))) (let ((.def_360 (not .def_359))) (let ((.def_361 (and .def_360 .def_358))) (let ((.def_362 (not .def_361))) (let ((.def_363 (or A14 .def_3))) (let ((.def_364 (and .def_38 A4))) (let ((.def_365 (not .def_364))) (let ((.def_366 (= .def_365 .def_363))) (let ((.def_367 (and .def_366 .def_362))) (let ((.def_368 (not .def_367))) (let ((.def_369 (and A24 .def_25))) (let ((.def_370 (not .def_369))) (let ((.def_371 (or .def_104 A23))) (let ((.def_372 (= .def_371 .def_370))) (let ((.def_373 (and A24 A8))) (let ((.def_374 (or A14 .def_100))) (let ((.def_375 (or .def_374 .def_373))) (let ((.def_376 (and .def_375 .def_372))) (let ((.def_377 (and .def_376 .def_368))) (let ((.def_378 (not .def_377))) (let ((.def_379 (or A8 .def_0))) (let ((.def_380 (or .def_41 .def_25))) (let ((.def_381 (= .def_380 .def_379))) (let ((.def_382 (= .def_50 A14))) (let ((.def_383 (not .def_382))) (let ((.def_384 (= A21 .def_55))) (let ((.def_385 (not .def_384))) (let ((.def_386 (and .def_385 .def_383))) (let ((.def_387 (and .def_386 .def_381))) (let ((.def_388 (not .def_387))) (let ((.def_389 (or .def_8 .def_41))) (let ((.def_390 (not .def_389))) (let ((.def_391 (and A24 .def_120))) (let ((.def_392 (not .def_391))) (let ((.def_393 (or .def_392 .def_390))) (let ((.def_394 (not .def_393))) (let ((.def_395 (or A1 A0))) (let ((.def_396 (or .def_76 A21))) (let ((.def_397 (and .def_396 .def_395))) (let ((.def_398 (not .def_397))) (let ((.def_399 (and .def_398 .def_394))) (let ((.def_400 (not .def_399))) (let ((.def_401 (and .def_400 .def_388))) (let ((.def_402 (not .def_401))) (let ((.def_403 (and .def_402 .def_378))) (let ((.def_404 (not .def_403))) (let ((.def_405 (or .def_404 .def_355))) (let ((.def_406 (not .def_405))) (let ((.def_407 (or .def_406 .def_307))) (let ((.def_408 (not .def_407))) (let ((.def_409 (= .def_408 .def_212))) (let ((.def_410 (not .def_409))) .def_410))))))))))))))))))))))))))))))))))))))))))))))))))))))))))))))))))))))))))))))))))))))))))))))))))))))))))))))))))))))))))))))))))))))))))))))))))))))))))))))))))))))))))))))))))))))))))))))))))))))))))))))))))))))))))))))))))))))))))))))))))))))))))))))))))))))))))))))))))))))))))))))))))))))))))))))))))))))))))))))))))))))))))))))))))))))))))))))))))))))))))))))))))))))))))))))))))))))))))))))))))))))))))))
(check-sat)
